NAME : instances/clustered-mixed-tsp/instance-76.tsp
COMMENT : No Comment
TYPE : TSP
DIMENSION: 40
EDGE_WEIGHT_TYPE : EUC_2D
NODE_COORD_SECTION
1 3758 4875 
2 1015 3998 
3 4747 964 
4 2051 1869 
5 2455 1771 
6 2390 2412 
7 5361 1633 
8 4641 1426 
9 806 570 
10 1612 4072 
11 5129 999 
12 1793 3916 
13 1145 4198 
14 2474 2041 
15 1712 3617 
16 2480 1782 
17 1727 4539 
18 1243 4675 
19 4727 1498 
20 4961 905 
21 4550 1509 
22 5339 1434 
23 2115 3138 
24 5237 1146 
25 1643 4447 
26 4707 1236 
27 4639 845 
28 2295 2304 
29 5361 1581 
30 825 662 
31 3868 5016 
32 5221 1311 
33 1037 749 
34 1935 2007 
35 1073 477 
36 1523 3451 
37 1574 3157 
38 4187 4874 
39 5200 1587 
40 1873 3409 
EOF
